22      4       
24      20      15      17      
0       0       0       0       0       3       2       3       4       
5       0       9       8       0       2       13      16      
5       5       6       0       9       3       5       8       15      
2       1       0       0       1       3       6       7       11      
7       0       0       5       3       2       9       10      
10      0       0       5       0       2       18      21      
8       0       8       5       3       2       9       17      
8       9       0       0       8       1       20      
6       0       5       0       9       1       14      
4       10      2       9       6       1       12      
1       0       4       0       0       1       13      
4       0       6       0       9       1       19      
9       6       5       0       0       1       21      
1       7       0       0       0       2       20      21      
7       0       6       2       6       2       17      18      
8       8       10      3       0       1       17      
4       4       5       0       0       1       19      
1       5       8       0       0       1       19      
4       0       0       4       0       1       22      
4       0       0       8       10      1       22      
4       4       0       0       0       1       22      
0       0       0       0       0       0       